\ Model Cl_25_Ins_4.lp
\ LP format - for model browsing. Use MPS format to capture full model detail.
Maximize
 
Subject To
 obj1: y[0] = 0
 obj2: y[1] = 0
 obj1_Exp: - y[0] + 94 x[0] + 92 x[1] + 90 x[2] + 90 x[3] + 84 x[4]
   + 82 x[5] + 81 x[6] + 81 x[7] + 76 x[8] + 68 x[9] + 60 x[10] + 55 x[11]
   + 53 x[12] + 51 x[13] + 42 x[14] + 40 x[15] + 37 x[16] + 36 x[17]
   + 33 x[18] + 17 x[19] + 13 x[20] + 10 x[21] + 7 x[22] + 7 x[23]
   + 4 x[24] = 0
 obj2_Exp: - y[1] + 84 x[0] + 34 x[1] + 85 x[2] + 32 x[3] + 40 x[4]
   + 38 x[5] + 64 x[6] + 28 x[7] + 31 x[8] + 20 x[9] + 83 x[10] + 15 x[11]
   + 14 x[12] + 77 x[13] + 7 x[14] + 72 x[15] + 46 x[16] + 47 x[17]
   + 14 x[18] + 41 x[19] + 18 x[20] + 8 x[21] + 42 x[22] + 36 x[23]
   + 39 x[24] = 0
 Budget: 104 x[0] + 102 x[1] + 100 x[2] + 100 x[3] + 94 x[4] + 92 x[5]
   + 91 x[6] + 91 x[7] + 86 x[8] + 78 x[9] + 70 x[10] + 65 x[11] + 63 x[12]
   + 61 x[13] + 52 x[14] + 50 x[15] + 47 x[16] + 46 x[17] + 43 x[18]
   + 27 x[19] + 23 x[20] + 20 x[21] + 17 x[22] + 17 x[23] + 14 x[24]
   <= 679
Bounds
Binaries
 x[0] x[1] x[2] x[3] x[4] x[5] x[6] x[7] x[8] x[9] x[10] x[11] x[12] x[13]
 x[14] x[15] x[16] x[17] x[18] x[19] x[20] x[21] x[22] x[23] x[24]
Generals
 y[0] y[1]
End
